70
1 0 20
2 0 8
2 1 13
3 0 13
3 2 13
4 0 19
4 1 10
4 2 18
4 3 1
5 0 12
5 1 7
5 2 5
5 3 16
6 0 19
6 1 6
6 2 8
6 3 9
6 4 17
6 5 12
7 0 12
7 1 17
7 2 5
7 4 18
7 5 16
7 6 12
8 0 4
8 1 9
8 2 2
8 3 13
8 4 11
8 5 14
8 6 5
8 7 14
9 0 6
9 1 8
9 2 16
9 3 12
9 4 13
9 5 2
9 6 18
9 7 5
9 8 16
10 0 16
10 1 13
10 2 8
10 3 14
10 4 20
10 5 7
10 6 12
10 7 18
10 8 15
10 9 19
11 0 18
11 1 2
11 2 15
11 3 18
11 4 4
11 5 9
11 7 20
11 8 8
11 9 19
11 10 9
12 0 1
12 1 10
12 2 13
12 3 18
12 4 11
12 5 10
12 7 9
12 8 12
12 9 1
12 10 20
12 11 13
13 0 10
13 1 12
13 3 5
13 4 8
13 5 8
13 6 7
13 7 18
13 8 12
13 9 6
13 10 11
13 11 7
13 12 9
14 0 11
14 1 6
14 2 9
14 3 14
14 4 9
14 5 20
14 6 16
14 7 5
14 8 4
14 9 1
14 10 5
14 11 13
14 12 11
14 13 1
15 1 17
15 2 14
15 3 7
15 4 19
15 5 19
15 6 20
15 7 5
15 8 3
15 9 19
15 11 8
15 12 10
15 13 5
15 14 13
16 0 10
16 2 16
16 3 18
16 4 18
16 5 15
16 6 3
16 7 1
16 8 7
16 9 14
16 10 16
16 11 18
16 12 6
16 13 4
16 14 3
16 15 8
17 0 9
17 2 14
17 3 16
17 4 11
17 6 11
17 7 2
17 8 20
17 9 12
17 10 3
17 11 20
17 13 17
17 14 11
17 15 16
17 16 14
18 0 13
18 1 13
18 2 6
18 3 18
18 4 15
18 6 12
18 7 12
18 8 10
18 10 9
18 11 10
18 12 13
18 13 15
18 14 15
18 15 10
18 16 4
18 17 9
19 0 16
19 1 17
19 3 5
19 5 9
19 6 15
19 7 19
19 8 19
19 9 7
19 10 17
19 11 12
19 12 4
19 13 10
19 14 6
19 15 11
19 16 12
19 17 19
19 18 3
20 0 7
20 1 6
20 2 13
20 3 20
20 4 1
20 5 4
20 6 12
20 9 16
20 10 17
20 11 7
20 12 19
20 13 6
20 14 5
20 15 16
20 16 15
20 17 13
20 18 10
20 19 5
21 0 6
21 1 14
21 2 15
21 3 9
21 5 4
21 7 2
21 8 2
21 9 2
21 10 3
21 11 19
21 12 16
21 13 10
21 14 17
21 15 6
21 16 10
21 18 12
21 20 14
22 0 16
22 1 6
22 2 18
22 5 4
22 6 19
22 7 3
22 8 6
22 9 9
22 10 15
22 11 18
22 13 17
22 14 19
22 15 7
22 16 7
22 17 6
22 18 6
22 19 4
22 20 2
22 21 13
23 0 12
23 1 14
23 2 19
23 3 5
23 4 11
23 5 5
23 6 11
23 7 2
23 9 15
23 11 1
23 12 19
23 13 11
23 14 2
23 15 7
23 16 20
23 17 9
23 18 4
23 20 7
23 21 14
24 0 5
24 1 7
24 2 12
24 3 12
24 4 1
24 5 15
24 6 16
24 7 20
24 8 2
24 9 6
24 10 1
24 11 18
24 12 4
24 13 6
24 14 8
24 15 7
24 16 8
24 17 7
24 18 15
24 19 12
24 20 2
24 22 18
24 23 1
25 0 13
25 3 3
25 4 11
25 5 19
25 6 4
25 7 20
25 8 6
25 9 14
25 10 6
25 11 12
25 12 15
25 13 17
25 15 1
25 16 2
25 17 18
25 18 12
25 19 4
25 20 14
25 21 9
25 22 16
25 23 14
25 24 16
26 0 11
26 1 7
26 5 20
26 6 1
26 7 13
26 8 20
26 10 14
26 11 9
26 12 16
26 13 7
26 14 16
26 15 20
26 16 2
26 17 16
26 18 19
26 19 10
26 20 1
26 21 6
26 23 14
26 24 13
26 25 2
27 0 19
27 1 11
27 2 1
27 3 6
27 4 7
27 5 1
27 6 2
27 7 12
27 8 13
27 9 2
27 10 5
27 11 12
27 12 11
27 13 3
27 14 8
27 15 2
27 16 1
27 17 12
27 18 17
27 20 7
27 21 17
27 22 1
27 23 10
27 24 11
27 25 4
28 0 16
28 1 4
28 2 7
28 3 13
28 4 13
28 5 8
28 6 18
28 7 7
28 8 2
28 9 20
28 10 11
28 11 5
28 12 19
28 14 9
28 15 7
28 16 6
28 17 11
28 18 19
28 19 11
28 20 9
28 22 8
28 23 4
28 25 14
28 26 1
28 27 4
29 0 17
29 1 15
29 2 19
29 3 18
29 4 12
29 5 7
29 6 6
29 7 18
29 8 5
29 9 9
29 10 12
29 11 12
29 12 17
29 13 2
29 14 9
29 15 6
29 16 1
29 17 16
29 18 6
29 19 2
29 20 10
29 22 3
29 23 16
29 24 13
29 25 4
29 26 2
29 27 1
29 28 5
30 0 19
30 1 13
30 3 15
30 4 16
30 6 5
30 7 8
30 8 8
30 9 4
30 10 19
30 11 19
30 12 5
30 13 3
30 14 15
30 15 20
30 16 19
30 17 8
30 18 1
30 19 18
30 20 7
30 21 19
30 22 18
30 23 10
30 24 16
30 25 9
30 26 9
30 27 8
30 28 15
30 29 8
31 0 4
31 1 5
31 2 9
31 4 9
31 5 12
31 6 7
31 7 6
31 8 17
31 9 2
31 10 9
31 11 9
31 12 18
31 13 2
31 15 9
31 16 16
31 18 11
31 19 15
31 20 14
31 21 8
31 22 5
31 23 6
31 24 6
31 25 19
31 26 17
31 27 9
31 28 9
31 29 19
31 30 11
32 0 8
32 2 4
32 3 8
32 4 19
32 6 18
32 7 15
32 8 19
32 10 9
32 11 17
32 12 1
32 13 10
32 14 11
32 15 8
32 16 3
32 17 10
32 18 6
32 19 14
32 20 10
32 21 15
32 22 4
32 23 19
32 24 3
32 26 16
32 27 9
32 28 4
32 29 8
32 30 1
32 31 3
33 0 20
33 1 3
33 2 13
33 3 12
33 4 11
33 5 17
33 6 15
33 7 13
33 8 18
33 9 7
33 10 18
33 11 9
33 12 9
33 13 15
33 14 3
33 15 19
33 16 8
33 17 6
33 19 11
33 20 19
33 21 1
33 22 11
33 23 6
33 24 16
33 25 16
33 26 15
33 27 16
33 28 19
33 29 19
33 30 3
33 32 9
34 0 14
34 1 5
34 2 1
34 3 19
34 5 3
34 6 4
34 7 11
34 9 3
34 10 15
34 11 16
34 12 18
34 13 15
34 14 1
34 15 13
34 16 18
34 19 9
34 20 20
34 21 2
34 22 19
34 23 7
34 25 3
34 26 12
34 27 13
34 28 6
34 29 17
34 30 12
34 32 12
34 33 10
35 0 1
35 1 4
35 2 4
35 3 12
35 4 13
35 5 3
35 6 5
35 7 13
35 8 17
35 10 1
35 11 3
35 12 19
35 13 8
35 14 17
35 15 4
35 16 1
35 17 20
35 18 15
35 19 17
35 20 12
35 21 12
35 22 5
35 23 5
35 24 2
35 25 8
35 26 16
35 27 9
35 28 9
35 29 2
35 31 5
35 32 11
35 33 5
36 0 5
36 1 8
36 2 9
36 3 3
36 4 13
36 5 14
36 6 9
36 7 2
36 8 18
36 9 20
36 10 10
36 11 14
36 12 20
36 13 19
36 14 4
36 16 14
36 17 4
36 18 6
36 19 4
36 20 19
36 21 16
36 22 19
36 23 13
36 24 6
36 25 11
36 26 10
36 28 2
36 29 18
36 30 8
36 31 12
36 32 10
36 33 19
36 34 9
36 35 2
37 0 10
37 1 2
37 2 17
37 3 6
37 4 18
37 6 13
37 7 14
37 8 19
37 9 19
37 10 16
37 11 12
37 14 11
37 15 10
37 16 18
37 17 7
37 19 12
37 20 20
37 21 4
37 22 18
37 23 9
37 24 19
37 25 9
37 26 18
37 27 10
37 28 20
37 29 17
37 30 7
37 31 5
37 32 16
37 33 14
37 34 9
37 35 16
37 36 10
38 0 20
38 1 9
38 2 7
38 3 12
38 4 13
38 5 14
38 7 14
38 8 18
38 9 17
38 10 5
38 11 18
38 12 16
38 13 1
38 14 18
38 15 1
38 16 2
38 19 4
38 20 1
38 22 7
38 24 18
38 25 15
38 26 17
38 27 2
38 28 8
38 29 18
38 30 18
38 31 18
38 32 4
38 33 17
38 34 1
38 35 18
38 36 2
38 37 13
39 0 9
39 2 2
39 4 16
39 5 13
39 6 1
39 7 20
39 8 1
39 9 6
39 10 11
39 13 12
39 14 3
39 15 8
39 16 16
39 17 17
39 18 17
39 19 3
39 20 2
39 21 10
39 22 3
39 23 1
39 24 7
39 25 18
39 26 18
39 27 5
39 28 10
39 29 5
39 30 15
39 31 5
39 32 4
39 33 16
39 34 19
39 36 1
39 37 7
39 38 15
40 0 14
40 1 5
40 2 9
40 3 14
40 5 14
40 6 15
40 7 10
40 8 9
40 9 12
40 10 9
40 11 16
40 13 19
40 14 3
40 15 10
40 16 7
40 17 8
40 18 2
40 20 18
40 21 6
40 22 17
40 23 17
40 24 8
40 25 19
40 26 12
40 27 1
40 28 13
40 29 12
40 30 16
40 31 16
40 32 13
40 33 10
40 34 20
40 35 20
40 36 4
40 37 7
40 38 12
40 39 8
41 0 6
41 1 17
41 2 19
41 3 3
41 4 6
41 5 5
41 6 8
41 7 17
41 8 20
41 9 4
41 10 20
41 11 1
41 12 15
41 13 10
41 14 1
41 15 5
41 16 12
41 17 4
41 18 2
41 19 2
41 20 14
41 22 1
41 23 13
41 24 4
41 25 2
41 26 3
41 27 8
41 28 12
41 30 12
41 31 20
41 32 10
41 33 10
41 35 20
41 36 4
41 37 13
41 38 11
41 39 3
41 40 1
42 0 13
42 1 15
42 2 1
42 3 12
42 6 15
42 7 14
42 8 20
42 9 6
42 10 8
42 11 5
42 12 20
42 13 10
42 14 6
42 15 6
42 16 9
42 17 5
42 18 4
42 19 11
42 20 7
42 22 11
42 23 9
42 24 7
42 25 19
42 26 19
42 27 12
42 28 7
42 29 14
42 32 11
42 33 3
42 34 11
42 35 18
42 36 11
42 37 12
42 38 15
42 39 19
42 41 11
43 1 6
43 2 5
43 3 14
43 4 16
43 6 9
43 7 11
43 8 1
43 9 19
43 10 7
43 11 2
43 13 14
43 14 10
43 15 19
43 16 3
43 17 4
43 18 3
43 19 18
43 20 17
43 21 3
43 22 4
43 23 5
43 24 16
43 25 3
43 26 10
43 27 16
43 28 19
43 29 16
43 30 18
43 31 10
43 32 15
43 33 6
43 34 19
43 35 13
43 36 8
43 37 12
43 38 7
43 39 2
43 40 1
43 41 3
43 42 13
44 0 5
44 1 9
44 2 9
44 3 16
44 5 14
44 9 9
44 10 5
44 12 10
44 13 6
44 14 7
44 15 9
44 16 1
44 17 8
44 18 8
44 20 7
44 21 20
44 22 1
44 23 13
44 24 5
44 26 3
44 28 5
44 29 13
44 30 4
44 31 1
44 32 1
44 33 11
44 34 2
44 36 3
44 38 16
44 39 1
44 40 15
44 41 20
44 42 3
44 43 7
45 1 19
45 2 2
45 3 11
45 4 8
45 5 8
45 6 19
45 7 20
45 8 11
45 9 9
45 10 17
45 11 2
45 12 18
45 13 8
45 14 5
45 15 6
45 16 11
45 17 19
45 18 16
45 19 10
45 20 20
45 21 10
45 22 5
45 23 18
45 24 3
45 25 12
45 26 9
45 27 1
45 28 19
45 29 9
45 30 15
45 31 6
45 32 14
45 33 5
45 34 11
45 35 10
45 37 19
45 38 7
45 39 13
45 40 4
45 41 9
45 42 19
45 43 12
45 44 5
46 0 1
46 1 4
46 2 5
46 3 3
46 4 7
46 5 4
46 6 2
46 7 14
46 8 11
46 9 20
46 10 10
46 11 17
46 12 17
46 13 5
46 14 12
46 15 8
46 16 17
46 18 17
46 19 18
46 20 15
46 21 10
46 22 4
46 23 20
46 24 5
46 25 16
46 26 2
46 27 15
46 28 6
46 29 5
46 30 2
46 31 17
46 32 14
46 34 13
46 35 2
46 36 12
46 37 9
46 38 1
46 39 16
46 40 7
46 41 20
46 42 3
46 43 19
46 44 16
46 45 17
47 1 14
47 2 4
47 3 2
47 5 20
47 6 6
47 7 20
47 8 3
47 9 4
47 10 14
47 11 16
47 12 11
47 13 4
47 14 5
47 15 5
47 16 9
47 17 4
47 18 3
47 19 11
47 20 6
47 21 2
47 22 4
47 23 1
47 24 11
47 25 6
47 26 8
47 27 10
47 28 4
47 29 20
47 30 17
47 31 7
47 32 11
47 33 10
47 34 20
47 35 15
47 36 1
47 37 9
47 38 11
47 39 2
47 40 19
47 41 5
47 42 6
47 43 12
47 44 1
47 45 10
47 46 9
48 0 20
48 1 3
48 2 19
48 3 13
48 4 13
48 5 11
48 6 17
48 7 7
48 8 11
48 9 2
48 10 8
48 11 14
48 12 11
48 13 9
48 15 2
48 16 7
48 17 12
48 18 2
48 19 17
48 20 14
48 21 7
48 22 3
48 25 9
48 26 17
48 28 13
48 29 9
48 30 14
48 32 6
48 33 11
48 34 4
48 35 9
48 37 5
48 38 12
48 39 2
48 40 19
48 42 15
48 43 7
48 44 8
48 45 16
48 46 3
48 47 19
49 0 18
49 2 6
49 3 13
49 4 4
49 5 14
49 6 18
49 7 11
49 9 13
49 10 9
49 12 6
49 14 12
49 15 19
49 16 10
49 17 10
49 18 6
49 19 6
49 20 20
49 21 6
49 22 12
49 23 1
49 25 7
49 26 2
49 27 17
49 28 10
49 29 15
49 30 2
49 31 6
49 32 11
49 34 15
49 35 15
49 37 19
49 38 14
49 39 6
49 40 20
49 42 20
49 43 16
49 44 19
49 45 5
49 46 2
49 47 10
49 48 1
50 0 17
50 1 17
50 2 1
50 3 17
50 4 1
50 5 17
50 6 16
50 8 16
50 9 7
50 10 11
50 11 3
50 12 12
50 13 2
50 14 8
50 15 13
50 16 4
50 17 13
50 18 12
50 19 17
50 20 20
50 21 2
50 22 16
50 23 1
50 24 16
50 25 14
50 27 17
50 28 17
50 29 19
50 31 6
50 32 20
50 33 14
50 34 17
50 35 8
50 36 9
50 37 19
50 38 11
50 39 4
50 41 2
50 42 10
50 43 19
50 44 16
50 45 7
50 47 11
50 48 5
50 49 10
51 0 9
51 1 5
51 2 8
51 3 3
51 4 15
51 5 17
51 6 10
51 7 3
51 8 11
51 9 2
51 10 8
51 11 3
51 13 6
51 14 3
51 16 15
51 17 9
51 18 8
51 20 16
51 21 20
51 22 20
51 23 6
51 24 1
51 25 17
51 28 2
51 29 13
51 31 5
51 32 5
51 33 15
51 34 3
51 35 14
51 36 16
51 37 13
51 38 20
51 39 12
51 40 9
51 41 17
51 42 11
51 43 12
51 44 7
51 45 8
51 46 13
51 47 13
51 48 13
51 49 7
51 50 3
52 0 19
52 1 9
52 2 16
52 3 4
52 4 11
52 5 18
52 6 5
52 7 3
52 8 7
52 10 13
52 11 5
52 12 3
52 13 20
52 14 1
52 15 9
52 17 4
52 18 5
52 19 20
52 21 6
52 22 20
52 23 4
52 24 17
52 26 8
52 27 9
52 28 9
52 29 3
52 30 10
52 31 3
52 32 5
52 33 10
52 34 3
52 35 2
52 36 13
52 38 4
52 39 3
52 40 6
52 41 15
52 42 4
52 43 9
52 44 5
52 45 14
52 47 12
52 48 17
52 49 6
52 50 14
52 51 18
53 0 12
53 1 17
53 2 15
53 3 1
53 5 7
53 6 8
53 7 9
53 8 5
53 9 3
53 10 16
53 11 15
53 12 2
53 13 6
53 14 4
53 15 20
53 17 16
53 18 3
53 19 9
53 20 16
53 21 4
53 22 11
53 23 10
53 24 4
53 25 13
53 26 4
53 27 18
53 28 16
53 29 17
53 30 12
53 31 8
53 32 12
53 33 9
53 34 13
53 35 18
53 36 5
53 37 13
53 38 1
53 39 2
53 40 18
53 41 9
53 42 4
53 44 14
53 45 19
53 46 14
53 47 17
53 48 10
53 49 10
53 50 20
53 51 4
53 52 12
54 0 14
54 1 6
54 2 13
54 3 18
54 4 10
54 5 19
54 6 17
54 7 9
54 8 8
54 9 9
54 10 13
54 11 12
54 13 15
54 14 20
54 15 9
54 16 17
54 17 18
54 18 3
54 19 1
54 20 3
54 21 16
54 23 18
54 24 6
54 26 19
54 27 5
54 28 13
54 29 8
54 30 19
54 31 5
54 32 9
54 34 3
54 35 8
54 36 7
54 37 15
54 38 1
54 39 10
54 40 17
54 41 18
54 42 2
54 43 19
54 44 4
54 45 14
54 46 20
54 47 12
54 48 15
54 49 14
54 50 1
54 51 9
54 52 20
54 53 19
55 0 18
55 1 20
55 2 10
55 5 2
55 6 9
55 7 9
55 8 15
55 9 18
55 10 1
55 12 12
55 14 15
55 15 12
55 16 11
55 17 1
55 18 16
55 19 17
55 20 3
55 21 18
55 23 17
55 24 17
55 25 8
55 26 13
55 27 9
55 28 5
55 29 8
55 31 15
55 32 6
55 33 19
55 34 16
55 35 16
55 36 14
55 37 2
55 38 15
55 39 18
55 40 19
55 41 15
55 43 14
55 44 15
55 45 15
55 46 6
55 47 12
55 48 9
55 49 15
55 50 1
55 52 3
55 53 4
56 0 4
56 1 13
56 2 20
56 3 20
56 4 19
56 5 16
56 6 8
56 7 10
56 8 12
56 9 15
56 11 18
56 12 9
56 14 4
56 15 11
56 16 3
56 17 7
56 18 7
56 19 13
56 20 18
56 21 19
56 22 1
56 23 5
56 24 18
56 25 8
56 26 2
56 27 12
56 28 5
56 29 16
56 31 17
56 32 5
56 34 10
56 35 12
56 36 18
56 37 3
56 38 6
56 39 12
56 40 7
56 41 6
56 42 6
56 43 6
56 44 4
56 45 6
56 46 7
56 47 18
56 48 10
56 49 18
56 51 19
56 52 18
56 53 1
56 54 1
56 55 7
57 0 18
57 1 16
57 3 20
57 4 8
57 5 7
57 6 10
57 7 3
57 8 2
57 9 13
57 10 2
57 11 20
57 12 6
57 13 20
57 16 7
57 17 2
57 18 17
57 19 6
57 20 10
57 21 4
57 22 17
57 23 5
57 24 20
57 26 16
57 27 17
57 29 12
57 32 2
57 33 7
57 34 3
57 35 10
57 36 20
57 37 2
57 38 19
57 39 4
57 40 16
57 41 13
57 42 6
57 43 20
57 44 2
57 45 10
57 46 3
57 47 5
57 49 20
57 50 3
57 51 16
57 52 7
57 53 6
57 54 11
57 55 3
57 56 3
58 0 14
58 1 8
58 2 19
58 3 1
58 5 2
58 7 2
58 8 13
58 9 8
58 10 20
58 11 12
58 12 8
58 13 10
58 15 10
58 17 9
58 18 9
58 19 15
58 20 9
58 21 3
58 23 12
58 24 6
58 25 1
58 27 6
58 28 18
58 29 10
58 30 15
58 31 2
58 32 2
58 33 6
58 34 15
58 35 17
58 36 14
58 37 20
58 38 11
58 39 19
58 40 3
58 41 8
58 43 17
58 44 16
58 45 9
58 46 5
58 47 18
58 48 5
58 49 1
58 50 15
58 51 14
58 52 15
58 53 17
58 54 11
58 55 14
58 56 12
58 57 5
59 0 17
59 1 15
59 3 11
59 4 20
59 6 7
59 7 17
59 8 16
59 10 8
59 11 8
59 12 5
59 13 15
59 14 8
59 17 18
59 18 16
59 19 10
59 20 12
59 21 16
59 22 19
59 23 2
59 24 11
59 25 1
59 26 8
59 27 6
59 28 6
59 29 15
59 30 18
59 32 17
59 33 7
59 34 20
59 35 2
59 36 5
59 37 13
59 38 12
59 39 9
59 42 16
59 43 15
59 44 8
59 45 10
59 46 20
59 47 9
59 48 12
59 49 11
59 50 1
59 51 12
59 52 3
59 55 10
59 56 2
59 57 18
59 58 18
60 0 7
60 1 19
60 2 17
60 3 16
60 4 9
60 5 19
60 6 18
60 7 14
60 8 12
60 9 8
60 10 1
60 11 8
60 12 14
60 13 3
60 14 15
60 16 19
60 18 7
60 19 13
60 20 13
60 21 18
60 22 7
60 23 3
60 24 15
60 25 7
60 26 20
60 28 17
60 29 19
60 30 12
60 31 20
60 32 19
60 33 18
60 35 7
60 36 13
60 37 20
60 38 10
60 39 12
60 41 18
60 44 12
60 45 2
60 46 20
60 47 6
60 48 7
60 49 3
60 50 8
60 51 2
60 54 1
60 55 1
60 56 1
60 57 8
60 58 20
60 59 14
61 0 14
61 1 20
61 2 11
61 3 17
61 4 18
61 5 11
61 6 4
61 7 19
61 8 12
61 9 15
61 10 14
61 11 6
61 12 17
61 13 20
61 14 4
61 15 14
61 16 16
61 17 8
61 18 13
61 19 2
61 20 15
61 21 15
61 22 2
61 23 20
61 24 7
61 25 16
61 26 18
61 28 10
61 29 11
61 30 17
61 31 3
61 33 20
61 34 1
61 35 17
61 36 19
61 37 11
61 38 5
61 40 16
61 41 18
61 42 11
61 43 2
61 44 7
61 46 7
61 48 8
61 49 7
61 50 12
61 51 15
61 52 5
61 53 16
61 54 11
61 55 8
61 56 9
61 58 19
61 59 1
61 60 9
62 0 2
62 1 6
62 2 6
62 3 2
62 5 5
62 6 9
62 7 11
62 8 20
62 9 20
62 11 17
62 12 10
62 13 14
62 14 20
62 15 16
62 16 13
62 17 9
62 18 14
62 19 9
62 20 12
62 21 1
62 22 1
62 23 15
62 24 10
62 25 11
62 26 3
62 27 19
62 28 4
62 29 14
62 30 7
62 31 10
62 32 13
62 33 6
62 34 5
62 35 13
62 36 17
62 37 1
62 38 10
62 39 20
62 40 14
62 41 4
62 42 20
62 43 5
62 44 13
62 45 7
62 46 10
62 47 12
62 48 3
62 49 19
62 50 4
62 52 16
62 53 7
62 54 14
62 55 2
62 56 11
62 57 9
62 58 17
62 59 2
62 60 2
62 61 2
63 0 19
63 1 7
63 2 13
63 3 1
63 4 11
63 5 8
63 6 19
63 7 10
63 8 5
63 9 14
63 11 1
63 12 11
63 13 17
63 14 14
63 15 1
63 16 3
63 17 5
63 18 18
63 19 20
63 20 13
63 21 19
63 22 10
63 23 11
63 24 3
63 25 15
63 26 2
63 27 1
63 28 20
63 29 14
63 30 10
63 31 6
63 32 14
63 33 7
63 34 18
63 35 5
63 36 16
63 37 9
63 38 8
63 39 5
63 41 11
63 42 3
63 43 18
63 44 19
63 46 5
63 47 13
63 48 8
63 49 18
63 50 2
63 51 10
63 52 18
63 53 20
63 54 8
63 55 17
63 56 15
63 59 2
63 60 15
63 61 6
63 62 10
64 0 9
64 1 4
64 2 16
64 3 16
64 4 16
64 5 2
64 6 10
64 7 1
64 8 9
64 9 11
64 10 19
64 11 18
64 12 14
64 14 18
64 15 14
64 16 5
64 17 15
64 18 1
64 19 9
64 20 10
64 21 17
64 22 16
64 24 18
64 25 15
64 26 10
64 27 7
64 28 1
64 29 8
64 30 4
64 32 19
64 33 3
64 34 7
64 35 9
64 36 13
64 37 10
64 38 10
64 39 9
64 40 9
64 41 10
64 42 7
64 44 14
64 45 5
64 46 5
64 47 19
64 48 20
64 49 13
64 50 15
64 51 4
64 54 19
64 55 17
64 56 16
64 59 11
64 60 1
64 61 15
64 62 2
65 0 1
65 1 14
65 2 11
65 3 10
65 4 2
65 5 4
65 6 15
65 7 9
65 8 9
65 9 16
65 10 3
65 11 13
65 12 18
65 13 7
65 14 1
65 15 2
65 16 13
65 17 5
65 18 1
65 19 2
65 20 11
65 21 16
65 22 9
65 23 7
65 24 4
65 26 20
65 27 17
65 28 7
65 29 18
65 30 16
65 31 12
65 32 9
65 33 12
65 34 1
65 35 13
65 36 20
65 37 15
65 38 20
65 39 7
65 40 9
65 41 16
65 42 19
65 43 18
65 44 17
65 45 9
65 47 11
65 48 18
65 49 19
65 50 19
65 51 16
65 52 16
65 53 13
65 54 1
65 55 14
65 56 14
65 57 9
65 58 13
65 59 9
65 60 16
65 61 17
65 62 15
65 63 1
65 64 7
66 0 15
66 1 15
66 2 18
66 3 5
66 4 14
66 5 1
66 6 18
66 8 6
66 10 13
66 13 16
66 16 5
66 17 9
66 19 7
66 20 9
66 22 15
66 23 3
66 24 11
66 25 3
66 26 5
66 27 14
66 28 10
66 29 18
66 30 15
66 31 14
66 32 17
66 33 12
66 34 16
66 35 6
66 36 17
66 37 15
66 38 3
66 39 7
66 40 7
66 41 8
66 42 14
66 43 9
66 44 5
66 45 12
66 46 9
66 47 13
66 48 13
66 49 6
66 50 6
66 51 11
66 52 13
66 53 20
66 54 17
66 56 18
66 57 15
66 58 4
66 59 19
66 60 1
66 61 16
66 62 4
66 63 15
66 64 19
66 65 9
67 0 6
67 1 20
67 2 1
67 3 8
67 4 16
67 5 7
67 6 3
67 7 20
67 8 19
67 9 10
67 10 17
67 11 11
67 12 15
67 13 2
67 14 15
67 15 11
67 16 16
67 17 9
67 18 16
67 19 12
67 20 14
67 21 18
67 23 13
67 25 17
67 27 11
67 30 11
67 32 9
67 33 10
67 36 5
67 37 4
67 38 12
67 39 6
67 40 10
67 41 6
67 42 14
67 43 17
67 44 9
67 45 10
67 46 20
67 47 20
67 48 17
67 50 1
67 51 20
67 52 19
67 53 11
67 54 16
67 55 15
67 56 11
67 57 20
67 58 14
67 59 19
67 60 2
67 61 4
67 62 7
67 63 1
67 66 5
68 1 5
68 2 6
68 3 10
68 4 14
68 6 14
68 7 13
68 8 16
68 9 1
68 10 15
68 11 17
68 13 20
68 14 15
68 15 12
68 16 7
68 17 9
68 18 18
68 19 19
68 21 4
68 22 10
68 23 3
68 24 3
68 26 12
68 27 14
68 28 16
68 29 9
68 30 5
68 31 11
68 32 3
68 34 12
68 35 13
68 36 19
68 37 1
68 38 8
68 39 2
68 40 14
68 41 10
68 42 7
68 43 13
68 44 16
68 45 12
68 46 12
68 47 17
68 48 17
68 49 3
68 50 10
68 51 14
68 52 4
68 53 5
68 54 11
68 55 1
68 56 14
68 57 4
68 58 12
68 59 11
68 60 14
68 61 19
68 62 20
68 63 12
68 64 6
68 65 13
68 66 7
68 67 4
69 0 13
69 1 20
69 3 16
69 4 17
69 5 8
69 6 7
69 7 7
69 8 3
69 9 1
69 10 20
69 11 17
69 13 10
69 14 4
69 15 19
69 16 16
69 17 11
69 18 18
69 19 6
69 20 13
69 21 3
69 22 18
69 23 18
69 24 17
69 25 3
69 26 14
69 27 16
69 28 9
69 29 9
69 31 19
69 32 9
69 33 14
69 34 17
69 35 12
69 36 15
69 37 16
69 38 16
69 39 12
69 40 13
69 41 17
69 42 14
69 43 7
69 44 2
69 45 13
69 46 12
69 47 6
69 48 3
69 49 1
69 50 17
69 51 2
69 52 3
69 53 3
69 54 11
69 55 11
69 56 16
69 57 17
69 58 5
69 59 1
69 60 7
69 61 19
69 62 12
69 63 19
69 64 16
69 65 16
69 66 16
69 67 1
69 68 11
